 &CONTROL
! calculation = 'vc-relax' ,
  calculation = 'scf' ,
  restart_mode = 'from_scratch' ,
  outdir = './tmp' ,
  pseudo_dir = '/home/sci/lib/pslibrary.1.0.0/pbe/PSEUDOPOTENTIALS' ,
  prefix = 'mgb2' 
  etot_conv_thr=0.0001,
  nstep = 120 ,
  tprnfor = .true. ,
  tstress = .true. ,
 /
 &SYSTEM
! assume_isolated = '2d' 
  nosym = .true. ,
  ibrav = 0,
!  ibrav = 2,celldm(1) = 8.03972878341
  nat = 24,
  ntyp = 2,
! nbnd = 17,
  ecutwfc = 90.0 ,
  ecutrho = 600.0 ,
! occupations = 'tetrahedra_opt',
  occupations = 'smearing' , degauss = 0.001 , smearing = 'gauss' ,
! nspin = 2,  
! starting_magnetization(1)=1.0,
! starting_magnetization(2)=-1.0,
! lda_plus_u = .true. ,
! Hubbard_U(1) = 0 ,
! Hubbard_U(2) = 0 ,
 /
 &ELECTRONS
  conv_thr = 1.0e-7 ,
  mixing_beta = 0.7 ,
  electron_maxstep = 300 ,
  mixing_mode = 'local-TF' ,
  mixing_ndim = 12 ,
 /
!&IONS
!ion_dynamics = 'bfgs'
! /
!&CELL
!cell_dynamics = 'bfgs'
! /
K_POINTS automatic 
 12 12 12  0 0 0
!    ibrav = 0, nat = 24, ntyp = 2
CELL_PARAMETERS bohr
   11.6599879670493287    0.0000000000000000    0.0000000000000000
   -5.8299939837136368   10.0978457874491152    0.0000000000000000
    0.0000000000000000    0.0000000000000000   13.3040503911193095
ATOMIC_SPECIES
 Mg   24.30500   Mg.pbe-spn-kjpaw_psl.1.0.0.UPF
  B   10.81100   B.pbe-n-kjpaw_psl.1.0.0.UPF
ATOMIC_POSITIONS crystal
 Mg   0.0011305515851146  0.0000000000000000  0.0011305515851146
 Mg   0.5000000000000000  0.0000000000000000  0.0000000000000000
 Mg   0.0000000000000000  0.5000000000000000  0.0000000000000000
 Mg   0.5000000000000000  0.5000000000000000  0.0000000000000000
 Mg   0.0000000000000000  0.0000000000000000  0.4999999999999999
 Mg   0.5000000000000000  0.0000000000000000  0.4999999999999999
 Mg   0.0000000000000000  0.5000000000000000  0.4999999999999999
 Mg   0.5000000000000000  0.5000000000000000  0.4999999999999999
  B   0.1666666714999998  0.3333333435000014  0.2500000000000000
  B   0.6666666714999998  0.3333333435000014  0.2500000000000000
  B   0.1666666714999998  0.8333333435000014  0.2500000000000000
  B   0.6666666714999998  0.8333333435000014  0.2500000000000000
  B   0.1666666714999998  0.3333333435000014  0.7499999999999999
  B   0.6666666714999998  0.3333333435000014  0.7499999999999999
  B   0.1666666714999998  0.8333333435000014  0.7499999999999999
  B   0.6666666714999998  0.8333333435000014  0.7499999999999999
  B   0.3333333134999990  0.1666666564999985  0.2500000000000000
  B   0.8333333134999990  0.1666666564999985  0.2500000000000000
  B   0.3333333134999990  0.6666666564999986  0.2500000000000000
  B   0.8333333134999990  0.6666666564999986  0.2500000000000000
  B   0.3333333134999990  0.1666666564999985  0.7499999999999999
  B   0.8333333134999990  0.1666666564999985  0.7499999999999999
  B   0.3333333134999990  0.6666666564999986  0.7499999999999999
  B   0.8333333134999990  0.6666666564999986  0.7499999999999999
