Mg  B 
 1.0000000000000000
     3.0850999355000002    0.0000000000000000    0.0000000000000000
    -1.5425499678000001    2.6717749174000001    0.0000000000000000
     0.0000000000000000    0.0000000000000000    3.5201001167000001
 Mg  B  
   1   2
Direct
  0.0000000000000000  0.0000000000000000  0.0000000000000000
  0.3333333429999997  0.6666666870000029  0.4999999999999999
  0.6666666269999979  0.3333333129999971  0.4999999999999999
