!    ibrav = 0, nat = 24, ntyp = 2
CELL_PARAMETERS bohr
   11.6599879670493287    0.0000000000000000    0.0000000000000000
   -5.8299939837136368   10.0978457874491152    0.0000000000000000
    0.0000000000000000    0.0000000000000000   13.3040503911193095
ATOMIC_SPECIES
 Mg   24.30500   Mg.pbe-spn-kjpaw_psl.1.0.0.UPF
  B   10.81100   B.pbe-n-kjpaw_psl.1.0.0.UPF
ATOMIC_POSITIONS crystal
 Mg   0.0000000000000000  0.0000000000000000  0.0000000000000000
 Mg   0.5000000000000000  0.0000000000000000  0.0000000000000000
 Mg   0.0000000000000000  0.5000000000000000  0.0000000000000000
 Mg   0.5000000000000000  0.5000000000000000  0.0000000000000000
 Mg   0.0000000000000000  0.0000000000000000  0.5000000000000000
 Mg   0.5000000000000000  0.0000000000000000  0.5000000000000000
 Mg   0.0000000000000000  0.5000000000000000  0.5000000000000000
 Mg   0.5000000000000000  0.5000000000000000  0.5000000000000000
  B   0.1666666714999998  0.3333333435000014  0.2500000000000000
  B   0.6666666714999998  0.3333333435000014  0.2500000000000000
  B   0.1666666714999998  0.8333333435000014  0.2500000000000000
  B   0.6666666714999998  0.8333333435000014  0.2500000000000000
  B   0.1666666714999998  0.3333333435000014  0.7500000000000000
  B   0.6666666714999998  0.3333333435000014  0.7500000000000000
  B   0.1666666714999998  0.8333333435000014  0.7500000000000000
  B   0.6666666714999998  0.8333333435000014  0.7500000000000000
  B   0.3333333134999990  0.1666666564999985  0.2500000000000000
  B   0.8333333134999990  0.1666666564999985  0.2500000000000000
  B   0.3333333134999990  0.6666666564999986  0.2500000000000000
  B   0.8333333134999990  0.6666666564999986  0.2500000000000000
  B   0.3333333134999990  0.1666666564999985  0.7500000000000000
  B   0.8333333134999990  0.1666666564999985  0.7500000000000000
  B   0.3333333134999990  0.6666666564999986  0.7500000000000000
  B   0.8333333134999990  0.6666666564999986  0.7500000000000000